      22       36 
      25       35 
      29       21 
      27       26 
      23       24 
      33       31 
      32       30 
      28       34 
      14       19 
       6       20 
      11       12 
       5       13 
       1        4 
      10        7 
       9        8 
       3        2 
      15       18 
      17        0 
      16        0 
